117
200
140	3
139	2
138	2
137	4
136	1
135	2
134	4
133	2
132	7
131	4
129	4
128	3
127	1
126	2
125	4
124	3
123	3
122	3
121	6
120	3
119	5
118	4
117	4
116	6
115	3
114	2
113	2
112	2
111	1
110	4
109	2
108	4
107	3
106	1
105	4
104	8
103	2
102	2
101	3
100	2
99	6
98	3
97	5
96	3
95	3
93	2
92	1
91	5
90	4
89	1
88	2
87	6
86	4
85	2
84	3
83	5
82	2
81	5
80	4
79	5
78	6
77	5
76	2
75	7
74	4
73	5
72	2
71	3
70	4
69	1
67	7
66	4
65	3
64	3
63	5
62	3
61	3
60	5
59	4
58	2
57	4
56	8
55	3
54	2
53	5
52	1
51	4
50	2
49	2
48	4
47	6
46	3
45	2
44	2
43	2
42	2
41	2
40	2
39	3
38	7
37	6
36	3
35	3
34	4
33	3
32	2
31	2
30	2
29	2
28	6
27	5
26	4
25	2
24	2
22	2
21	5
20	5
